10 5
1 2 30
1 3 39
1 4 31
1 5 91
1 6 73
1 7 37
1 8 49
1 9 76
1 10 81
2 3 77
2 4 77
2 5 65
2 6 69
2 7 67
2 8 17
2 9 11
2 10 80
3 4 21
3 5 25
3 6 20
3 7 53
3 8 63
3 9 81
3 10 33
4 5 43
4 6 58
4 7 47
4 8 62
4 9 100
4 10 18
5 6 13
5 7 95
5 8 13
5 9 57
5 10 94
6 7 8
6 8 43
6 9 41
6 10 74
7 8 29
7 9 67
7 10 43
8 9 68
8 10 38
9 10 65
